computational_data/solutions/K8_16.sol
Optimal - objective value 8.00000000
      0 r_0                         1                       1
      1 r_1                         0                       1
      2 r_2                         1                       1
      3 r_3                         1                       1
      4 r_4                         0                       1
      5 r_5                         0                       1
      6 r_6                         0                       1
      7 r_7                         1                       1
      8 r_8                         0                       1
      9 r_9                         0                       1
     10 r_10                        0                       1
     11 r_11                        0                       1
     12 r_12                        0                       1
     13 r_13                        0                       1
     14 r_14                        0                       1
     15 r_15                        0                       1
     16 r_16                        0                       1
     17 r_17                        0                       1
     18 r_18                        0                       1
     19 r_19                        0                       1
     20 r_20                        0                       1
     21 r_21                        0                       1
     22 r_22                        0                       1
     23 r_23                        0                       1
     24 b_0                         0                       1
     25 b_1                         1                       1
     26 b_2                         0                       1
     27 b_3                         0                       1
     28 b_4                         1                       1
     29 b_5                         1                       1
     30 b_6                         1                       1
     31 b_7                         0                       1
     32 b_8                         0                       1
     33 b_9                         0                       1
     34 b_10                        0                       1
     35 b_11                        0                       1
     36 b_12                        0                       1
     37 b_13                        0                       1
     38 b_14                        0                       1
     39 b_15                        0                       1
     40 b_16                        0                       1
     41 b_17                        0                       1
     42 b_18                        0                       1
     43 b_19                        0                       1
     44 b_20                        0                       1
     45 b_21                        0                       1
     46 b_22                        0                       1
     47 b_23                        0                       1
