computational_data/logs/K8_16.log
Welcome to the CBC MILP Solver 
Version: 2.10.12 
Build Date: Aug 20 2024 

command line - /opt/homebrew/bin/cbc computational_data/lp/K8_16.lp seconds 10.0 solve solu computational_data/solutions/K8_16.sol (default strategy 1)
seconds was changed from 1e+100 to 10
Continuous objective value is 3.35484 - 0.00 seconds
Cgl0004I processed model has 330 rows, 48 columns (48 integer (48 of which binary)) and 1216 elements
Cutoff increment increased from 1e-05 to 0.9999
Cbc0038I Initial state - 24 integers unsatisfied sum - 3.35484
Cbc0038I Pass   1: suminf.    3.35484 (24) obj. 3.35484 iterations 19
Cbc0038I Pass   2: suminf.    0.00000 (0) obj. 8 iterations 61
Cbc0038I Solution found of 8
Cbc0038I Before mini branch and bound, 10 integers at bound fixed and 0 continuous
Cbc0038I Full problem 330 rows 48 columns, reduced to 220 rows 38 columns - 2 fixed gives 0, 0 - ok now
Cbc0038I Full problem 330 rows 48 columns, reduced to 0 rows 0 columns
Cbc0038I Mini branch and bound did not improve solution (0.01 seconds)
Cbc0038I Round again with cutoff of 6.63557
Cbc0038I Pass   3: suminf.    3.35484 (24) obj. 3.35484 iterations 0
Cbc0038I Pass   4: suminf.    4.36443 (13) obj. 6.63557 iterations 39
Cbc0038I Pass   5: suminf.    3.62024 (29) obj. 6.63557 iterations 27
Cbc0038I Pass   6: suminf.    3.76846 (18) obj. 6.63557 iterations 50
Cbc0038I Pass   7: suminf.    2.26316 (29) obj. 6.31579 iterations 21
Cbc0038I Pass   8: suminf.    2.70454 (24) obj. 6.63557 iterations 51
Cbc0038I Pass   9: suminf.    2.36443 (36) obj. 6.63557 iterations 33
Cbc0038I Pass  10: suminf.    6.29780 (19) obj. 6.63557 iterations 47
Cbc0038I Pass  11: suminf.    2.69455 (39) obj. 3.57818 iterations 36
Cbc0038I Pass  12: suminf.    3.45597 (12) obj. 6.63557 iterations 64
Cbc0038I Pass  13: suminf.    2.72885 (11) obj. 6.63557 iterations 10
Cbc0038I Pass  14: suminf.    2.42934 (24) obj. 6.63557 iterations 18
Cbc0038I Pass  15: suminf.    6.29780 (19) obj. 6.63557 iterations 40
Cbc0038I Pass  16: suminf.    2.69455 (39) obj. 3.57818 iterations 36
Cbc0038I Pass  17: suminf.    5.96002 (19) obj. 6.63557 iterations 49
Cbc0038I Pass  18: suminf.    2.12500 (34) obj. 3.875 iterations 37
Cbc0038I Pass  19: suminf.    5.98895 (24) obj. 6.63557 iterations 62
Cbc0038I Pass  20: suminf.    2.77966 (32) obj. 3.54237 iterations 14
Cbc0038I Pass  21: suminf.    2.27404 (10) obj. 6.63557 iterations 51
Cbc0038I Pass  22: suminf.    2.27404 (10) obj. 6.63557 iterations 7
Cbc0038I Pass  23: suminf.    2.25000 (18) obj. 3.75 iterations 20
Cbc0038I Pass  24: suminf.    2.27404 (10) obj. 6.63557 iterations 29
Cbc0038I Pass  25: suminf.    4.83557 (15) obj. 6.63557 iterations 20
Cbc0038I Pass  26: suminf.    2.69231 (40) obj. 5.38462 iterations 47
Cbc0038I Pass  27: suminf.    2.27404 (10) obj. 6.63557 iterations 47
Cbc0038I Pass  28: suminf.    2.27404 (10) obj. 6.63557 iterations 7
Cbc0038I Pass  29: suminf.    2.25000 (18) obj. 3.75 iterations 25
Cbc0038I Pass  30: suminf.    2.69853 (25) obj. 6.63557 iterations 38
Cbc0038I Pass  31: suminf.    2.42934 (24) obj. 6.63557 iterations 11
Cbc0038I Pass  32: suminf.    3.62024 (29) obj. 6.63557 iterations 35
Cbc0038I No solution found this major pass
Cbc0038I Before mini branch and bound, 0 integers at bound fixed and 0 continuous
Cbc0038I Full problem 330 rows 48 columns, reduced to 330 rows 48 columns - 1 fixed gives 150, 30 - ok now
Cbc0038I Mini branch and bound did not improve solution (0.04 seconds)
Cbc0038I After 0.04 seconds - Feasibility pump exiting with objective of 8 - took 0.03 seconds
Cbc0012I Integer solution of 8 found by feasibility pump after 0 iterations and 0 nodes (0.04 seconds)
Cbc0038I Full problem 330 rows 48 columns, reduced to 150 rows 28 columns
Cbc0031I 7 added rows had average density of 30.571429
Cbc0013I At root node, 7 cuts changed objective from 3.3548387 to 3.9998389 in 100 passes
Cbc0014I Cut generator 0 (Probing) - 8 row cuts average 5.8 elements, 0 column cuts (0 active)  in 0.035 seconds - new frequency is -100
Cbc0014I Cut generator 1 (Gomory) - 367 row cuts average 47.0 elements, 0 column cuts (0 active)  in 0.012 seconds - new frequency is 1
Cbc0014I Cut generator 2 (Knapsack) - 0 row cuts average 0.0 elements, 0 column cuts (0 active)  in 0.014 seconds - new frequency is -100
Cbc0014I Cut generator 3 (Clique) - 0 row cuts average 0.0 elements, 0 column cuts (0 active)  in 0.004 seconds - new frequency is -100
Cbc0014I Cut generator 4 (MixedIntegerRounding2) - 17 row cuts average 47.9 elements, 0 column cuts (0 active)  in 0.015 seconds - new frequency is -100
Cbc0014I Cut generator 5 (FlowCover) - 0 row cuts average 0.0 elements, 0 column cuts (0 active)  in 0.001 seconds - new frequency is -100
Cbc0010I After 0 nodes, 1 on tree, 8 best solution, best possible 3.9998389 (0.20 seconds)
Cbc0001I Search completed - best objective 8, took 1889 iterations and 4 nodes (0.22 seconds)
Cbc0032I Strong branching done 62 times (1262 iterations), fathomed 1 nodes and fixed 4 variables
Cbc0035I Maximum depth 1, 0 variables fixed on reduced cost
Cuts at root node changed objective from 3.35484 to 3.99984
Probing was tried 100 times and created 8 cuts of which 0 were active after adding rounds of cuts (0.035 seconds)
Gomory was tried 108 times and created 389 cuts of which 0 were active after adding rounds of cuts (0.013 seconds)
Knapsack was tried 100 times and created 0 cuts of which 0 were active after adding rounds of cuts (0.014 seconds)
Clique was tried 100 times and created 0 cuts of which 0 were active after adding rounds of cuts (0.004 seconds)
MixedIntegerRounding2 was tried 100 times and created 17 cuts of which 0 were active after adding rounds of cuts (0.015 seconds)
FlowCover was tried 100 times and created 0 cuts of which 0 were active after adding rounds of cuts (0.001 seconds)
TwoMirCuts was tried 1 times and created 0 cuts of which 0 were active after adding rounds of cuts (0.000 seconds)
ZeroHalf was tried 1 times and created 0 cuts of which 0 were active after adding rounds of cuts (0.001 seconds)

Result - Optimal solution found

Objective value:                8.00000000
Enumerated nodes:               4
Total iterations:               1889
Time (CPU seconds):             0.22
Time (Wallclock seconds):       0.23

Total time (CPU seconds):       0.22   (Wallclock seconds):       0.23

